
Gurobi 11.0.3 (linux64) logging started Mon Nov 25 03:33:31 2024

Set parameter LogFile to value "/home/yihong/Coding/OR_SUC/SUC_results_bigM100000_thread4/case24_ieee_rts_theta0.1_epsilon0.025_gurobi_seed1290000_num_gen100_N_WDR100_load_scaling_factor1_exact_T20quadra_cost.txt"
Set parameter TimeLimit to value 3600
Gurobi Optimizer version 11.0.3 build v11.0.3rc0 (linux64 - "Ubuntu 20.04.6 LTS")

CPU model: AMD EPYC 7532 32-Core Processor, instruction set [SSE2|AVX|AVX2]
Thread count: 64 physical cores, 128 logical processors, using up to 4 threads

Optimize a model with 43303 rows, 25001 columns and 593882 nonzeros
Model fingerprint: 0x6c3bcf3b
Model has 2000 quadratic constraints
Variable types: 22901 continuous, 2100 integer (2100 binary)
Coefficient statistics:
  Matrix range     [2e-04, 1e+05]
  QMatrix range    [2e-03, 8e-03]
  QLMatrix range   [3e-01, 6e+01]
  Objective range  [1e+00, 1e+00]
  Bounds range     [1e+00, 1e+00]
  RHS range        [1e+00, 1e+05]
Presolve removed 35092 rows and 10866 columns
Presolve time: 0.20s
Presolved: 8211 rows, 14135 columns, 52968 nonzeros
Presolved model has 2000 quadratic constraint(s)
Variable types: 12076 continuous, 2059 integer (2059 binary)

Root relaxation: objective 3.068813e+04, 6534 iterations, 0.15 seconds (0.21 work units)

    Nodes    |    Current Node    |     Objective Bounds      |     Work
 Expl Unexpl |  Obj  Depth IntInf | Incumbent    BestBd   Gap | It/Node Time

     0     0 30688.1273    0    4          - 30688.1273      -     -    0s
     0     0 339526.257    0  527          - 339526.257      -     -    0s
     0     0 347349.551    0  515          - 347349.551      -     -    0s
     0     0 548199.083    0  530          - 548199.083      -     -    1s
     0     0 548229.963    0  425          - 548229.963      -     -    1s
     0     0 548829.241    0  362          - 548829.241      -     -    1s
     0     0 548935.212    0  358          - 548935.212      -     -    1s
     0     0 548936.102    0  358          - 548936.102      -     -    1s
     0     0 548936.107    0  358          - 548936.107      -     -    7s
     0     2 548936.107    0  358          - 548936.107      -     -    7s
H  389   437                    550518.86963 548948.634  0.29%  22.8    8s
*  389   437             140    550518.86963 548948.634  0.29%  22.8    8s
H  701   575                    549687.10100 548948.634  0.13%  20.2   10s
*  701   575             139    549687.10100 548948.634  0.13%  20.3   10s
   894   654 549042.475   53  254 549687.101 548948.634  0.13%  22.2   15s
  1000   726 548974.425   22  192 549687.101 548951.521  0.13%  43.8   20s
H 1497   805                    549681.44547 548957.432  0.13%  48.1   24s
* 1497   805              95    549681.44547 548957.432  0.13%  48.1   24s
  1600   829 549048.339   19  169 549681.445 548957.432  0.13%  50.5   25s
H 1728   832                    549615.62328 548957.432  0.12%  53.6   26s
* 1728   832              51    549615.62328 548957.432  0.12%  53.7   26s
H 1756   790                    549608.76053 548957.432  0.12%  53.3   26s
* 1756   790              65    549608.76053 548957.432  0.12%  53.4   26s
H 1888   730                    549580.67842 548961.674  0.11%  52.3   27s
* 1888   730              77    549580.67842 548961.674  0.11%  52.3   27s
H 1889   447                    548991.85424 548961.674  0.01%  52.3   27s
* 1889   447              78    548991.85424 548961.674  0.01%  52.3   27s

Cutting planes:
  Gomory: 5
  Implied bound: 8
  MIR: 58
  Mixing: 2
  Flow cover: 16
  RLT: 2

Explored 1931 nodes (120950 simplex iterations) in 27.82 seconds (25.53 work units)
Thread count was 4 (of 128 available processors)

Solution count 7: 548992 549581 549609 ... 550519

Optimal solution found (tolerance 1.00e-03)
Warning: max constraint violation (5.2384e-08) exceeds tolerance
Best objective 5.489918542439e+05, best bound 5.489634431376e+05, gap 0.0052%
